NAME : rat99.tsp
COMMENT : Optimal tour for rat99.tsp
TYPE : TOUR
DIMENSION : 99
Total Length: 1303.653923601272
TOUR_SECTION
1
2
10
11
12
3
4
5
6
7
8
9
18
17
16
15
14
13
20
19
28
37
29
30
31
32
41
40
39
48
38
47
46
55
57
56
65
64
74
73
82
83
91
92
93
94
96
97
98
99
90
89
79
88
87
95
86
85
84
76
75
66
67
68
77
78
69
80
81
72
71
70
61
62
63
54
53
52
60
59
58
49
50
51
42
33
34
43
45
44
36
35
27
26
25
24
23
22
21
-1
EOF
